units		lj
atom_style	bond
special_bonds   fene

read_data	inputs/fene_220.data

neighbor	0.4 bin
neigh_modify    delay 1 every 1

bond_style      fene
bond_coeff	1 30.0 1.5 1.0 1.0

pair_style	lj/cut 1.12
pair_modify	shift yes
pair_coeff	1 1 1.0 1.0 1.12

fix		1 all nve
fix		2 all langevin 1.0 1.0 10.0 1728

timestep	0.005

run		100000

compute		gyr all gyration
fix		3 all ave/time 200 2000 500000 c_gyr file outputs/tmp_220.out

run		400000

